&CONTROL
  calculation = 'scf'
  etot_conv_thr =   1.6000000000d-04
  forc_conv_thr =   1.0000000000d-04
  outdir = './out/'
  prefix = 'aiida'
  pseudo_dir = './pseudo/'
  tprnfor = .true.
  tstress = .true.
  verbosity = 'high'
/
&SYSTEM
  degauss =   1.4699723600d-02
  ecutrho =   4.0000000000d+02
  ecutwfc =   5.0000000000d+01
  ibrav = 0
  nat = 16
  nosym = .false.
  ntyp = 3
  occupations = 'smearing'
  smearing = 'cold'
/
&ELECTRONS
  conv_thr =   3.2000000000d-09
  electron_maxstep = 80
  mixing_beta =   4.0000000000d-01
/
ATOMIC_SPECIES
Li     6.941 li_pbesol_v1.4.uspp.F.UPF
O      15.9994 O.pbesol-n-kjpaw_psl.0.1.UPF
V      50.9415 v_pbesol_v1.4.uspp.F.UPF
ATOMIC_POSITIONS crystal
Li           0.0099077200       0.6675221400       0.2470587400 
Li           0.5099077200       0.3324778600       0.2529412600 
Li           0.5099077200       0.3324778600       0.7470587400 
Li           0.0099077200       0.6675221400       0.7529412600 
Li           0.0116280500       0.1659563400       0.5000000000 
Li           0.5116280500       0.8340436600       0.0000000000 
V            0.0010096500       0.1694065900       0.0000000000 
V            0.5010096500       0.8305934100       0.5000000000 
O            0.1111010600       0.3201769300       0.2261191100 
O            0.6513642000       0.1723677400       0.0000000000 
O            0.1111010600       0.3201769300       0.7738808900 
O            0.6111010600       0.6798230700       0.2738808900 
O            0.6111010600       0.6798230700       0.7261191100 
O            0.6097765400       0.1330673600       0.5000000000 
O            0.1097765400       0.8669326400       0.0000000000 
O            0.1513642000       0.8276322600       0.5000000000 
K_POINTS automatic
7 6 6 0 0 0
CELL_PARAMETERS angstrom
      4.9145492700       0.0000000000       0.0000000000
      0.0000000000       5.4150441700       0.0000000000
      0.0000000000       0.0000000000       6.2807193300
