&CONTROL
  calculation = 'vc-relax'
  etot_conv_thr =   4.4000000000d-04
  forc_conv_thr =   1.0000000000d-04
  outdir = './out/'
  prefix = 'aiida'
  pseudo_dir = './pseudo/'
  tprnfor = .true.
  tstress = .true.
  verbosity = 'high'
/
&SYSTEM
  ecutrho =   7.8000000000d+02
  ecutwfc =   6.5000000000d+01
  ibrav = 0
  nat = 44
  nosym = .false.
  ntyp = 5
  occupations = 'fixed'
/
&ELECTRONS
  conv_thr =   8.8000000000d-09
  electron_maxstep = 1000
  mixing_beta =   4.0000000000d-01
  startingpot      = "atomic"       
  startingwfc      = "atomic+random"
/                                     
&IONS                                 
 ion_dynamics = "bfgs"
/
&CELL

/
ATOMIC_SPECIES
Li     6.941 Li.pbe-mt_fhi.UPF
Mn     54.938045 Mn.pbe-mt_fhi.UPF
O      15.9994 O.pbe-mt_fhi.UPF
Si     28.0855 Si.pbe-mt_fhi.UPF
V      50.9415 V.pbe-mt_fhi.UPF
ATOMIC_POSITIONS crystal
Li           0.0781800000       0.6113900000       0.2737200000 
Li           0.5394100000       0.4487600000       0.2637900000 
Li           0.3729100000       0.3269500000       0.3228600000 
Li           0.0010400000       0.6981800000       0.3318300000 
Li           0.0589600000       0.1648400000       0.2847500000 
Li           0.4073800000       0.8996500000       0.3607700000 
Mn           0.0000000000       0.0000000000       0.4568500000 
Mn          -0.0000000000       0.5000000000       0.4361000000 
Mn           0.5000000000       0.0000000000       0.4361000000 
Mn           0.5000000000       0.5000000000       0.4568500000 
V            0.1486400000       0.0894400000       0.3389100000 
V            0.5588600000       0.8062600000       0.2979300000 
Si           0.6202400000       0.1680900000       0.1014600000 
Si           0.1132200000       0.3364100000       0.0843900000 
Si           0.9801600000       0.4144200000       0.0162900000 
Si           0.4534200000       0.1234000000       0.1677700000 
Si           0.0154800000       0.6942600000       0.1058700000 
Si           0.5183700000       0.8033900000       0.0743200000 
Si           0.2889100000       0.7918300000       0.0091800000 
Si           0.8231400000       0.7066100000       0.1675800000 
O            0.4303400000       0.3468400000       0.0937200000 
O            0.9391500000       0.1498600000       0.0916900000 
O            0.2942600000       0.2633800000       0.1859100000 
O            0.7722000000       0.2980200000       0.0000000000 
O            0.0836900000       0.3851700000       0.0495200000 
O            0.6086100000       0.1439200000       0.1368500000 
O            0.4493800000       0.8948700000       0.1733800000 
O            0.4644000000       0.0199200000       0.0805600000 
O            0.8380600000       0.7661200000       0.0782800000 
O            0.3330700000       0.7109800000       0.0994900000 
O            0.7538600000       0.8854700000       0.1892400000 
O            0.1210000000       0.5973100000       0.0030800000 
O            0.4184700000       0.7426000000       0.0422600000 
O            0.0625300000       0.7895800000       0.1368100000 
O            0.7954700000       0.5024500000       0.1742800000 
O            0.0451700000       0.4757900000       0.1066900000 
O            0.2617400000       0.3764500000       0.2829400000 
O            0.5611200000       0.1335500000       0.3559300000 
O            0.0247200000       0.2845800000       0.3354500000 
O            0.7083400000       0.6650800000       0.2730700000 
O            0.5954800000       0.7126500000       0.3316700000 
O            0.7418300000       0.0233100000       0.3010100000 
O            0.0367300000       0.9170900000       0.3547200000 
O            0.2263300000       0.8311200000       0.2916300000 
K_POINTS automatic
7 7 1 0 0 0
CELL_PARAMETERS angstrom
      4.8132000000       0.0000000000       0.0000000000
      0.0000000000       4.9383000000       0.0000000000
      0.0000000000       0.0000000000      42.3457000000
